
Log started (V12.10.0.0) Fri Apr  9 00:31:09 2021


Problem 'asset.lp' read.
Read time = 0.00 sec. (0.09 ticks)
New value for default parallel thread count: 1
New value for time limit in seconds: 200
Version identifier: 12.10.0.0 | 2019-11-26 | 843d4de
CPXPARAM_Threads                                 1
CPXPARAM_TimeLimit                               200
Found incumbent of value -0.896968 after 0.00 sec. (0.05 ticks)
Tried aggregator 3 times.
MIP Presolve eliminated 299 rows and 245 columns.
MIP Presolve modified 728 coefficients.
Aggregator did 236 substitutions.
Reduced MIP has 366 rows, 362 columns, and 1447 nonzeros.
Reduced MIP has 306 binaries, 32 generals, 0 SOSs, and 0 indicators.
Presolve time = 0.00 sec. (2.68 ticks)
Probing fixed 66 vars, tightened 12 bounds.
Probing time = 0.00 sec. (0.68 ticks)
Cover probing fixed 0 vars, tightened 35 bounds.
Tried aggregator 1 time.
MIP Presolve eliminated 120 rows and 112 columns.
Reduced MIP has 246 rows, 242 columns, and 787 nonzeros.
Reduced MIP has 206 binaries, 12 generals, 0 SOSs, and 0 indicators.
Presolve time = 0.00 sec. (0.83 ticks)
Probing time = 0.00 sec. (0.30 ticks)
Tried aggregator 1 time.
Detecting symmetries...
Reduced MIP has 246 rows, 242 columns, and 787 nonzeros.
Reduced MIP has 206 binaries, 12 generals, 0 SOSs, and 0 indicators.
Presolve time = 0.00 sec. (0.57 ticks)
Probing time = 0.00 sec. (0.30 ticks)
Clique table members: 88.
MIP emphasis: balance optimality and feasibility.
MIP search method: dynamic search.
Parallel mode: none, using 1 thread.
Root relaxation solution time = 0.00 sec. (1.45 ticks)

        Nodes                                         Cuts/
   Node  Left     Objective  IInf  Best Integer    Best Bound    ItCnt     Gap

*     0+    0                           -0.8970      250.9530              --- 
      0     0      149.0237    75       -0.8970      149.0237      172     --- 
*     0+    0                          149.0039      149.0237             0.01%
      0     0      149.0208    75      149.0039      Cuts: 41      240    0.01%
*     0+    0                          149.0039      149.0208             0.01%
      0     0      149.0183    75      149.0039      Cuts: 55      298    0.01%

Implied bound cuts applied:  16
Flow cuts applied:  3
Gomory fractional cuts applied:  16

Root node processing (before b&c):
  Real time             =    0.02 sec. (15.09 ticks)
Sequential b&c:
  Real time             =    0.00 sec. (0.00 ticks)
                          ------------
Total (root+branch&cut) =    0.02 sec. (15.09 ticks)

Solution pool: 3 solutions saved.

MIP - Integer optimal, tolerance (0.0001/1e-06):  Objective =  1.4900394020e+02
Current MIP best bound =  1.4901832691e+02 (gap = 0.0143867, 0.01%)
Solution time =    0.02 sec.  Iterations = 298  Nodes = 0 (1)
Deterministic time = 15.09 ticks  (781.53 ticks/sec)


Incumbent solution
Variable Name           Solution Value
F                           160.000000
f1                            0.926060
f2                           10.070000
y142                          1.000000
y102                          1.000000
y79                           1.000000
y38                           1.000000
y97                           1.000000
y186                          1.000000
y59                           1.000000
y75                           1.000000
y189                          1.000000
y139                          1.000000
s1                            6.000000
s3                            6.000000
s4                            6.000000
s18                           6.000000
s22                           6.000000
s32                           6.000000
s36                           6.000000
s37                           6.000000
s89                           6.000000
s121                          6.000000
s135                          6.000000
s137                          6.000000
s141                          6.000000
s142                          6.884513
s147                          6.000000
s152                          6.000000
s173                          6.000000
s179                          6.000000
s181                          6.000000
s183                          6.000000
s193                          6.000000
s194                          6.000000
s196                          6.030000
s102                          6.961122
s118                          6.100000
s79                           7.073954
s45                           6.180000
s170                          6.190000
s91                           6.200000
s195                          6.200000
s71                           6.220000
s38                           7.193506
s97                           6.988472
s186                          7.051153
s25                           6.290000
s59                           7.205631
s125                          6.310000
s73                           6.320000
s75                           7.058812
s189                          6.978114
s139                          7.024060
x65x59x1                      1.000000
x171x59x1                     1.000000
x76x189x1                     1.000000
x202x189x1                    1.000000
x15x79x1                      1.000000
x15x97x1                      1.000000
x155x75x1                     1.000000
x206x142x2                    1.000000
x126x186x2                    1.000000
x61x142x2                     1.000000
x61x97x2                      1.000000
x155x186x2                    1.000000
x206x102x3                    1.000000
x126x139x3                    1.000000
x65x38x3                      1.000000
x93x79x3                      1.000000
x93x38x3                      1.000000
x171x139x3                    1.000000
x76x102x3                     1.000000
x202x75x3                     1.000000
x142x0x2                      2.000000
x102x0x3                      2.000000
x79x0x1                       1.000000
x79x0x3                       1.000000
x38x0x3                       2.000000
x97x0x1                       1.000000
x97x0x2                       1.000000
x186x0x2                      2.000000
x59x0x1                       2.000000
x75x0x1                       1.000000
x75x0x3                       1.000000
x189x0x1                      2.000000
x139x0x3                      2.000000
s206                          5.241251
z206z142z2                    1.000000
z206z102z3                    1.000000
s126                          5.257107
z126z186z2                    1.000000
z126z139z3                    1.000000
s65                           5.358222
z65z38z3                      1.000000
z65z59z1                      1.000000
s93                           5.680000
z93z79z3                      1.000000
z93z38z3                      1.000000
s171                          4.920900
z171z59z1                     1.000000
z171z139z3                    1.000000
s61                           5.041030
z61z142z2                     1.000000
z61z97z2                      1.000000
s76                           4.968760
z76z102z3                     1.000000
z76z189z1                     1.000000
s202                          4.977670
z202z75z3                     1.000000
z202z189z1                    1.000000
s15                           5.089730
z15z79z1                      1.000000
z15z97z1                      1.000000
s155                          5.117300
z155z186z2                    1.000000
z155z75z1                     1.000000
All other variables in the range 1-848 are 0.
